NAME : pr20.tsp
COMMENT : 20-city problem
TYPE : TSP 
DIMENSION : 20
EDGE_WEIGHT_TYPE : CEIL_2D
NODE_COORD_SECTION 
1  3.905100e+04 5.463500e+04 
2  7.233200e+04 3.166900e+04 
3  1.841500e+04 9.959100e+04 
4  5.991900e+04 4.936900e+04 
5  1.570400e+04 2.842500e+04 
6  2.396900e+04 2.992800e+04 
7  7.811300e+04 9.152700e+04 
8  3.504100e+04 5.763400e+04 
9  5.630100e+04 7.746300e+04 
10 2.064600e+04 6.568500e+04 
11 2.518400e+04 2.044100e+04 
12 2.740300e+04 6.640300e+04 
13 8.764800e+04 8.431900e+04 
14 2.826400e+04 6.383300e+04 
15 2.017000e+03 8.134000e+04 
16 2.200600e+04 3.379000e+03 
17 7.899800e+04 1.930500e+04 
18 7.791200e+04 5.502300e+04 
19 7.861800e+04 6.636700e+04 
20 4.825000e+04 2.116800e+04 
EOF 
